import ITimer.dzn;
import IColourSensor.dzn;
import ISensor.dzn;
import IActuator.dzn;
import IMotor.dzn;

interface ISortingSystem {
	
	in void startSorting();
	out void finished();
	
	behaviour {
		enum State { Idle, AwaitColourScan, SortWhite, SortBlack, SortOther };
		State state = State.Idle;
		
		[state.Idle] {
			on startSorting: {}
		}
		
		[state.AwaitColourScan] {
			on startSorting: illegal;
		}
		
		[state.SortWhite] {
			on startSorting: illegal;
		}
		
		[state.SortBlack] {
			on startSorting: illegal;
		}
		
		[state.SortOther] {
			on startSorting: illegal;
		}
	}
}

component SortingSystem {
	provides ISortingSystem sortingSystem;
	requires IColourSensor colourSensor;
	requires ISensor beltSensorWhite;
	requires ISensor beltSensorBlack;
	requires IActuator whiteActuator;
	requires IActuator blackActuator;
	requires IMotor beltMotor;
	requires ITimer timer;
	
	behaviour {
		enum State { Idle, AwaitColourScan, SortWhite, SortBlack, SortOther};
		State state = State.Idle;
		Long delay = $5000$; // in milliseconds, currently 5 seconds
		
		[state.Idle] {
			on sortingSystem.startSorting(): {
				state = State.AwaitColourScan;
			}
		}
		
		[state.AwaitColourScan] {
			on colourSensor.detectedWhite(): {
				whiteActuator.extend();
				state = State.SortWhite;
			}
			on colourSensor.detectedBlack(): {
				blackActuator.extend();
				state = State.SortBlack;
			}
			on colourSensor.detectedUnknown(): {
				state = State.SortOther;
			}
		}
		
		[state.SortWhite] {
			on beltSensorWhite.high(): {
				timer.start(delay); // wait {delay} milliseconds
			}
			on timer.timeout(): {
				state = State.Idle;
				whiteActuator.withdraw();
				sortingSystem.finished();
			}
		}
		
		[state.SortBlack] {
			on beltSensorBlack.high(): {
				timer.start(delay); // wait {delay} milliseconds
			}
			on timer.timeout(): {
				state = State.Idle;
				blackActuator.withdraw();
				sortingSystem.finished();
			}
		}
		
		[state.SortOther] {
			on beltSensorBlack.high(): {
				timer.start(delay);
			}
			on timer.timeout(): {
				state = State.Idle;
				sortingSystem.finished();
			}
		}
	}
}